5 11 4 12 17 24 16 15 14 13 18 26 25 44 52 73 63 67 74 76 77 80 81 86 87 91 93 98 92 88 97 111 122 129 120 117 113 104 99 100 101 105 106 107 112 123 124 125 130 126 127 128 121 116 119 115 118 114 108 109 110 102 103 96 95 94 90 89 85 84 83 82 78 79 71 72 60 59 58 57 62 66 70 75 69 65 68 64 61 55 56 51 50 49 48 47 46 54 53 45 27 28 19 29 30 31 20 32 33 34 35 21 36 37 38 22 39 40 41 42 43 23 10 3 9 8 2 1 7 6 0 